outputs/case_428.model.txt
capital_adequacy_ratio = 40
improvement_plan_not_effective_flag = False
net_worth_ratio = 3/2
net_worth = 100
improvement_plan_approved = False
financial_deterioration_flag = False
capital_level_4_measures_completed = False
internal_control_executed_flag = True
internal_handling_executed_flag = True
internal_handling_established_flag = True
internal_control_established_flag = True
internal_handling_established = True
capital_level_4_noncompliance = True
capital_level = 4
internal_handling_ok = True
improvement_plan_submitted = False
internal_control_executed = True
violation_internal_handling = False
regulatory_action_required = True
financial_deterioration = False
penalty = False
violation_internal_control = False
internal_handling_executed = True
internal_control_established = True
improvement_plan_not_effective = False
internal_control_ok = True